\ Model Capital Budgeting Problem
\ LP format - for model browsing. Use MPS format to capture full model detail.
Maximize
  71.4393464537 x[0] + 98.92255581889999 x[1] + 45.8566593315 x[2]
   + 97.6778451367 x[3] + 45.2911115592 x[4]
Subject To
 Budget: 28.5581227405 x[0] + 32.5494193315 x[1] + 33.1787235883 x[2]
   + 37.2453391326 x[3] + 45.2819262637 x[4] <= 351.1795088473
 Regulatory_0: x[0] <= 1
 Regulatory_1: x[1] <= 0
 Regulatory_2: x[2] <= 1
 Regulatory_3: x[3] <= 1
 Regulatory_4: x[4] <= 1
 Resource_0: x[0] <= 1
 Resource_1: x[1] <= 0
 Resource_2: x[2] <= 1
 Resource_3: x[3] <= 0
 Resource_4: x[4] <= 1
Bounds
Binaries
 x[0] x[1] x[2] x[3] x[4]
End
